p cnf 30 220
1 2 3 0
4 5 6 0
7 8 9 0
10 11 12 0
13 14 15 0
16 17 18 0
19 20 21 0
22 23 24 0
25 26 27 0
28 29 30 0
-1 -2 0
-1 -3 0
-2 -3 0
-4 -5 0
-4 -6 0
-5 -6 0
-7 -8 0
-7 -9 0
-8 -9 0
-10 -11 0
-10 -12 0
-11 -12 0
-13 -14 0
-13 -15 0
-14 -15 0
-16 -17 0
-16 -18 0
-17 -18 0
-19 -20 0
-19 -21 0
-20 -21 0
-22 -23 0
-22 -24 0
-23 -24 0
-25 -26 0
-25 -27 0
-26 -27 0
-28 -29 0
-28 -30 0
-29 -30 0
-1 -4 0
-1 -10 0
-1 -13 0
-1 -16 0
-1 -25 0
-4 -1 0
-4 -7 0
-4 -13 0
-4 -16 0
-4 -19 0
-4 -22 0
-4 -25 0
-4 -28 0
-7 -4 0
-7 -10 0
-7 -13 0
-7 -22 0
-7 -25 0
-10 -1 0
-10 -7 0
-10 -13 0
-10 -16 0
-10 -19 0
-10 -22 0
-10 -28 0
-13 -1 0
-13 -4 0
-13 -7 0
-13 -10 0
-13 -16 0
-13 -19 0
-13 -25 0
-16 -1 0
-16 -4 0
-16 -10 0
-16 -13 0
-16 -19 0
-16 -22 0
-16 -25 0
-19 -4 0
-19 -10 0
-19 -13 0
-19 -16 0
-19 -22 0
-19 -28 0
-22 -4 0
-22 -7 0
-22 -10 0
-22 -16 0
-22 -19 0
-22 -25 0
-25 -1 0
-25 -4 0
-25 -7 0
-25 -13 0
-25 -16 0
-25 -22 0
-28 -4 0
-28 -10 0
-28 -19 0
-2 -5 0
-2 -11 0
-2 -14 0
-2 -17 0
-2 -26 0
-5 -2 0
-5 -8 0
-5 -14 0
-5 -17 0
-5 -20 0
-5 -23 0
-5 -26 0
-5 -29 0
-8 -5 0
-8 -11 0
-8 -14 0
-8 -23 0
-8 -26 0
-11 -2 0
-11 -8 0
-11 -14 0
-11 -17 0
-11 -20 0
-11 -23 0
-11 -29 0
-14 -2 0
-14 -5 0
-14 -8 0
-14 -11 0
-14 -17 0
-14 -20 0
-14 -26 0
-17 -2 0
-17 -5 0
-17 -11 0
-17 -14 0
-17 -20 0
-17 -23 0
-17 -26 0
-20 -5 0
-20 -11 0
-20 -14 0
-20 -17 0
-20 -23 0
-20 -29 0
-23 -5 0
-23 -8 0
-23 -11 0
-23 -17 0
-23 -20 0
-23 -26 0
-26 -2 0
-26 -5 0
-26 -8 0
-26 -14 0
-26 -17 0
-26 -23 0
-29 -5 0
-29 -11 0
-29 -20 0
-3 -6 0
-3 -12 0
-3 -15 0
-3 -18 0
-3 -27 0
-6 -3 0
-6 -9 0
-6 -15 0
-6 -18 0
-6 -21 0
-6 -24 0
-6 -27 0
-6 -30 0
-9 -6 0
-9 -12 0
-9 -15 0
-9 -24 0
-9 -27 0
-12 -3 0
-12 -9 0
-12 -15 0
-12 -18 0
-12 -21 0
-12 -24 0
-12 -30 0
-15 -3 0
-15 -6 0
-15 -9 0
-15 -12 0
-15 -18 0
-15 -21 0
-15 -27 0
-18 -3 0
-18 -6 0
-18 -12 0
-18 -15 0
-18 -21 0
-18 -24 0
-18 -27 0
-21 -6 0
-21 -12 0
-21 -15 0
-21 -18 0
-21 -24 0
-21 -30 0
-24 -6 0
-24 -9 0
-24 -12 0
-24 -18 0
-24 -21 0
-24 -27 0
-27 -3 0
-27 -6 0
-27 -9 0
-27 -15 0
-27 -18 0
-27 -24 0
-30 -6 0
-30 -12 0
-30 -21 0
